564855 8804411
15
12 96009 157660 333176
17 211291 3509506 569743
11 985132 8359910 609653
21 43869 4065950 850455
15 759976 6617790 989804
13 433738 9122050 412393
5 287835 1421501 345833
1 707005 7426250 944381
9 900289 7939080 466803
11 144863 365450 983916
13 388888 1099200 168294
25 32866 1874008 659631
13 196878 6494304 219910
29 77990 1486540 970834
19 290804 8330180 346177
